Normalized Data/p02_6_normalized_splitx10_0.vrp
NAME:p02_6_NORMALIZED_splitx10_
BEST_KNOWN: 0
COMMENT: 0
DIMENSION: 259
CAPACITY: 1000
EDGE_WEIGHT_FORMAT: FUNCTION
EDGE_WEIGHT_TYPE: EXACT_2D
NODE_COORD_SECTION
1 0.00000 0.00000
2 40 49
3 40 49
4 40 49
5 40 49
6 40 49
7 -35 15
8 -35 15
9 -35 15
10 -19 42
11 -19 42
12 -19 42
13 -19 42
14 32 -26
15 32 -26
16 32 -26
17 32 -26
18 32 -26
19 32 -26
20 32 -26
21 -27 6
22 -27 6
23 -27 6
24 -27 6
25 -33 8
26 -33 8
27 -33 8
28 44 39
29 44 39
30 50 -8
31 50 -8
32 50 -8
33 50 -8
34 -49 43
35 -49 43
36 -49 43
37 -49 43
38 -49 43
39 -49 43
40 -10 12
41 7 -7
42 7 -7
43 -35 -15
44 -35 -15
45 -35 -15
46 -35 -15
47 -28 -9
48 -28 -9
49 -28 -9
50 27 -17
51 27 -17
52 0 -35
53 0 -35
54 1 46
55 1 46
56 1 46
57 1 46
58 1 46
59 8 -45
60 8 -45
61 8 -45
62 8 -45
63 -27 36
64 -27 36
65 -34 12
66 -34 12
67 -34 12
68 -34 12
69 -34 12
70 -47 9
71 -47 9
72 -47 9
73 -47 9
74 -3 -35
75 -3 -35
76 -37 42
77 -37 42
78 -37 42
79 -37 42
80 21 -49
81 21 -49
82 21 -49
83 21 -49
84 21 -49
85 9 25
86 9 25
87 9 25
88 9 25
89 26 -21
90 26 -21
91 26 -21
92 13 14
93 13 14
94 13 14
95 13 14
96 13 14
97 11 32
98 11 32
99 11 32
100 11 32
101 11 32
102 11 32
103 29 22
104 29 22
105 29 22
106 -29 33
107 -29 33
108 32 27
109 32 27
110 34 -8
111 34 -8
112 34 -8
113 34 -8
114 34 -8
115 34 -8
116 41 -31
117 41 -31
118 41 -31
119 -48 17
120 -48 17
121 -48 17
122 17 -45
123 17 -45
124 -4 -38
125 -4 -38
126 -4 -38
127 15 -48
128 15 -48
129 15 -48
130 15 -48
131 15 -48
132 39 21
133 39 21
134 39 21
135 -16 8
136 -16 8
137 -46 8
138 -46 8
139 -46 8
140 -46 8
141 -46 8
142 -46 8
143 11 -49
144 11 -49
145 11 -49
146 11 -49
147 -23 21
148 -23 21
149 -23 21
150 -23 21
151 -23 21
152 -23 21
153 11 5
154 11 5
155 11 5
156 -45 20
157 -45 20
158 19 -39
159 19 -39
160 19 -39
161 19 -39
162 19 -39
163 19 -39
164 44 25
165 44 25
166 17 -29
167 31 -50
168 31 -50
169 31 -50
170 31 -50
171 -18 -46
172 -18 -46
173 -18 -46
174 -26 2
175 -26 2
176 -26 2
177 -46 38
178 -46 38
179 -46 38
180 -35 42
181 -35 42
182 -35 42
183 25 34
184 25 34
185 25 34
186 25 34
187 -9 -19
188 -9 -19
189 -9 -19
190 -9 -19
191 42 29
192 42 29
193 42 29
194 42 29
195 42 29
196 -40 -28
197 -40 -28
198 41 44
199 41 44
200 41 44
201 15 45
202 15 45
203 15 45
204 46 -28
205 46 -28
206 30 -3
207 30 -3
208 -43 -13
209 -43 -13
210 -9 -32
211 -9 -32
212 -9 -32
213 -9 -32
214 -9 -32
215 -45 4
216 -45 4
217 -6 32
218 -6 32
219 -6 32
220 -6 32
221 -30 -49
222 -30 -49
223 -30 -49
224 -23 1
225 -23 1
226 -23 1
227 -23 1
228 37 16
229 37 16
230 18 -26
231 18 -26
232 -23 -34
233 -23 -34
234 -9 -33
235 -9 -33
236 -9 -33
237 -9 -33
238 -23 -11
239 -23 -11
240 -23 -11
241 -23 -11
242 -23 -11
243 1 -27
244 1 -27
245 1 -27
246 -47 6
247 -47 6
248 -47 6
249 -47 6
250 -47 6
251 13 -14
252 13 -14
253 39 5
254 39 5
255 39 5
256 -48 3
257 -48 3
258 -48 3
259 -48 3
DEMAND_SECTION
1 0
2 200
3 100
4 50
5 10
6 10
7 100
8 50
9 10
10 200
11 100
12 50
13 10
14 200
15 100
16 50
17 10
18 10
19 10
20 10
21 100
22 10
23 10
24 10
25 100
26 10
27 10
28 200
29 50
30 200
31 100
32 50
33 10
34 200
35 100
36 50
37 10
38 10
39 10
40 200
41 200
42 200
43 200
44 200
45 10
46 10
47 200
48 200
49 50
50 200
51 50
52 200
53 10
54 200
55 100
56 50
57 10
58 10
59 200
60 100
61 10
62 10
63 100
64 50
65 200
66 100
67 50
68 10
69 10
70 200
71 200
72 10
73 10
74 200
75 50
76 200
77 200
78 10
79 10
80 100
81 10
82 10
83 10
84 10
85 200
86 100
87 50
88 10
89 200
90 10
91 10
92 200
93 50
94 10
95 10
96 10
97 200
98 100
99 50
100 10
101 10
102 10
103 200
104 200
105 10
106 200
107 50
108 200
109 200
110 200
111 200
112 50
113 10
114 10
115 10
116 200
117 200
118 100
119 200
120 10
121 10
122 100
123 50
124 200
125 200
126 100
127 200
128 50
129 10
130 10
131 10
132 200
133 100
134 10
135 200
136 100
137 200
138 200
139 50
140 10
141 10
142 10
143 100
144 50
145 10
146 10
147 200
148 100
149 10
150 10
151 10
152 10
153 200
154 100
155 50
156 200
157 200
158 200
159 200
160 10
161 10
162 10
163 10
164 200
165 10
166 200
167 200
168 200
169 10
170 10
171 100
172 10
173 10
174 200
175 200
176 50
177 100
178 50
179 10
180 200
181 50
182 10
183 200
184 200
185 10
186 10
187 200
188 100
189 50
190 10
191 200
192 200
193 10
194 10
195 10
196 200
197 200
198 200
199 10
200 10
201 200
202 200
203 10
204 200
205 50
206 200
207 100
208 200
209 200
210 100
211 50
212 10
213 10
214 10
215 200
216 50
217 200
218 100
219 50
220 10
221 100
222 50
223 10
224 200
225 200
226 10
227 10
228 200
229 10
230 200
231 10
232 200
233 100
234 200
235 200
236 10
237 10
238 200
239 200
240 50
241 10
242 10
243 200
244 100
245 10
246 100
247 50
248 10
249 10
250 10
251 200
252 200
253 200
254 10
255 10
256 200
257 50
258 10
259 10
DEPOT_SECTION
1
-1
EOF