Normalized Data/p02_6_normalized_splitx10_0.sol
258 -6 119 120 118 69 71 72 70 141 136 -8 7 155 156 35 34 33 37 36 38 178 176 177 -12 10 11 9 62 149 146 151 150 147 148 39 -21 23 20 22 25 26 24 64 67 65 68 66 135 134 -27 28 198 199 197 3 4 2 1 5 92 95 93 -40 41 251 250 -44 43 42 45 207 208 -47 48 46 237 241 239 240 238 -49 111 110 109 112 113 114 205 206 -50 204 203 116 115 117 88 -51 52 124 123 125 74 73 -59 61 60 58 143 142 145 144 126 128 129 130 127 122 121 -63 181 180 179 76 75 77 78 105 106 -85 86 87 84 94 91 154 152 153 -89 90 14 16 19 17 18 15 13 30 31 32 29 254 252 253 -96 98 53 57 56 55 54 216 218 217 219 -99 101 100 97 201 200 202 182 185 183 184 -102 103 107 108 227 -104 192 194 190 191 193 164 163 131 132 133 228 -137 139 138 140 248 246 249 245 247 256 257 255 258 214 215 -162 160 158 159 157 161 80 83 79 81 82 168 169 166 167 -174 173 175 226 225 224 223 -188 189 186 187 211 209 212 213 210 235 234 236 233 -196 195 222 220 221 170 172 171 232 231 -230 229 165 242 244 243 0 





OBJ=
2384.136
BEST_KNOWN=
0.000